NAME : kroA100-C-3-1-a__baseline_same_priority_ls20__27359.tour
COMMENT : Length = 27359.000
COMMENT : Generated by evaluate_ctspd.py for baseline_same_priority_ls20
TYPE : TOUR
DIMENSION : 100
TOUR_SECTION
91
1
58
28
93
47
74
59
17
15
11
45
32
21
72
36
99
38
24
84
10
63
6
49
90
18
79
92
75
19
53
88
16
94
22
70
66
4
65
26
97
56
8
42
80
31
89
69
73
50
44
82
95
76
33
13
2
54
40
64
67
61
25
81
68
85
39
37
5
52
78
96
30
48
100
41
71
14
3
43
46
29
34
83
55
7
9
87
51
57
20
12
27
86
35
62
60
77
23
98
-1
EOF
